benchmarks_CP/INST_36x36/30/inst36x36_30_8.dzn
S=6;
start=[|
-1,	-1,	-1,	10,	-1,	-1,	29,	-1,	-1,	-1,	-1,	-1,	-1,	-1,	31,	-1,	-1,	25,	-1,	-1,	-1,	-1,	-1,	-1,	-1,	-1,	-1,	-1,	-1,	-1,	-1,	-1,	-1,	28,	-1,	-1|
-1,	-1,	-1,	-1,	-1,	29,	-1,	-1,	-1,	-1,	-1,	-1,	-1,	15,	13,	11,	-1,	-1,	16,	-1,	-1,	-1,	-1,	7,	31,	-1,	-1,	-1,	-1,	-1,	-1,	-1,	-1,	-1,	-1,	-1|
-1,	-1,	-1,	-1,	-1,	13,	-1,	26,	-1,	28,	-1,	17,	-1,	32,	-1,	-1,	16,	-1,	-1,	35,	-1,	-1,	-1,	-1,	29,	-1,	2,	30,	-1,	-1,	-1,	-1,	-1,	-1,	22,	-1|
-1,	-1,	2,	33,	21,	-1,	-1,	-1,	-1,	15,	32,	4,	22,	-1,	-1,	35,	-1,	10,	-1,	-1,	-1,	-1,	-1,	-1,	5,	3,	20,	-1,	-1,	-1,	-1,	-1,	-1,	-1,	13,	31|
17,	-1,	14,	-1,	26,	-1,	-1,	-1,	-1,	-1,	-1,	-1,	-1,	34,	21,	-1,	-1,	-1,	10,	-1,	2,	-1,	36,	-1,	-1,	8,	4,	-1,	-1,	-1,	29,	-1,	5,	-1,	-1,	30|
-1,	25,	-1,	1,	-1,	-1,	-1,	-1,	-1,	-1,	-1,	19,	-1,	20,	17,	-1,	-1,	30,	-1,	-1,	-1,	3,	29,	31,	-1,	-1,	-1,	-1,	-1,	-1,	-1,	-1,	-1,	-1,	-1,	18|
15,	-1,	-1,	-1,	-1,	-1,	-1,	-1,	12,	-1,	-1,	30,	-1,	16,	-1,	-1,	-1,	11,	-1,	-1,	-1,	-1,	-1,	-1,	-1,	31,	-1,	-1,	-1,	-1,	-1,	-1,	-1,	-1,	14,	-1|
-1,	-1,	-1,	-1,	33,	-1,	-1,	-1,	-1,	24,	-1,	-1,	-1,	-1,	-1,	-1,	22,	-1,	34,	-1,	23,	12,	35,	-1,	14,	-1,	-1,	-1,	36,	-1,	20,	-1,	6,	-1,	26,	-1|
-1,	28,	20,	-1,	-1,	-1,	-1,	-1,	32,	-1,	-1,	-1,	13,	10,	-1,	33,	-1,	31,	11,	-1,	-1,	-1,	3,	-1,	-1,	-1,	-1,	-1,	-1,	-1,	-1,	-1,	-1,	-1,	-1,	-1|
24,	-1,	-1,	31,	-1,	-1,	17,	22,	-1,	-1,	9,	-1,	-1,	-1,	-1,	36,	-1,	-1,	-1,	-1,	21,	-1,	13,	-1,	-1,	-1,	-1,	11,	-1,	-1,	33,	-1,	30,	23,	-1,	10|
-1,	-1,	-1,	25,	-1,	-1,	14,	35,	20,	-1,	-1,	7,	34,	-1,	-1,	-1,	17,	-1,	-1,	-1,	-1,	-1,	-1,	1,	-1,	-1,	-1,	-1,	3,	-1,	-1,	-1,	-1,	-1,	-1,	-1|
-1,	-1,	-1,	-1,	-1,	-1,	-1,	27,	33,	31,	-1,	-1,	-1,	-1,	-1,	-1,	-1,	35,	-1,	-1,	36,	-1,	19,	-1,	-1,	-1,	15,	-1,	26,	-1,	-1,	9,	-1,	-1,	-1,	24|
-1,	-1,	-1,	-1,	-1,	-1,	-1,	-1,	-1,	-1,	-1,	-1,	-1,	-1,	-1,	-1,	25,	-1,	24,	-1,	-1,	23,	-1,	-1,	-1,	18,	-1,	-1,	-1,	-1,	-1,	-1,	27,	32,	-1,	-1|
-1,	-1,	-1,	-1,	-1,	-1,	-1,	2,	-1,	-1,	24,	-1,	-1,	-1,	-1,	-1,	32,	-1,	-1,	-1,	-1,	-1,	-1,	-1,	-1,	25,	-1,	8,	-1,	17,	-1,	7,	-1,	-1,	-1,	28|
-1,	-1,	-1,	-1,	-1,	28,	-1,	-1,	-1,	18,	21,	-1,	-1,	9,	-1,	-1,	-1,	22,	-1,	-1,	15,	-1,	6,	10,	-1,	20,	-1,	-1,	-1,	-1,	-1,	-1,	-1,	-1,	-1,	-1|
-1,	16,	-1,	9,	30,	-1,	25,	7,	-1,	-1,	11,	-1,	-1,	17,	-1,	10,	4,	-1,	-1,	-1,	3,	-1,	-1,	19,	33,	-1,	-1,	-1,	5,	32,	-1,	18,	-1,	-1,	-1,	-1|
-1,	-1,	-1,	-1,	-1,	27,	-1,	-1,	19,	33,	-1,	-1,	-1,	-1,	11,	1,	-1,	-1,	-1,	-1,	14,	-1,	-1,	-1,	-1,	-1,	-1,	-1,	-1,	-1,	-1,	-1,	25,	-1,	-1,	22|
-1,	17,	26,	34,	-1,	5,	16,	-1,	-1,	-1,	1,	-1,	-1,	27,	-1,	-1,	6,	-1,	-1,	-1,	-1,	-1,	22,	-1,	9,	-1,	31,	-1,	-1,	-1,	-1,	-1,	-1,	-1,	-1,	-1|
-1,	-1,	-1,	-1,	-1,	-1,	-1,	19,	-1,	-1,	-1,	-1,	9,	-1,	-1,	23,	-1,	-1,	-1,	-1,	-1,	-1,	25,	-1,	-1,	-1,	11,	-1,	10,	-1,	-1,	-1,	-1,	-1,	30,	-1|
-1,	-1,	-1,	-1,	34,	-1,	-1,	28,	-1,	-1,	10,	-1,	-1,	-1,	-1,	-1,	21,	-1,	19,	-1,	-1,	17,	-1,	-1,	36,	-1,	7,	-1,	-1,	-1,	22,	-1,	32,	-1,	18,	29|
-1,	-1,	-1,	-1,	-1,	-1,	-1,	-1,	-1,	-1,	-1,	-1,	-1,	29,	-1,	-1,	10,	8,	-1,	-1,	-1,	-1,	-1,	24,	-1,	-1,	-1,	25,	-1,	31,	-1,	12,	20,	-1,	23,	27|
-1,	-1,	-1,	20,	-1,	-1,	-1,	21,	25,	16,	-1,	24,	-1,	-1,	-1,	-1,	-1,	1,	-1,	30,	-1,	36,	-1,	23,	-1,	19,	14,	18,	-1,	-1,	13,	-1,	31,	-1,	-1,	-1|
-1,	-1,	9,	-1,	-1,	31,	-1,	20,	-1,	-1,	-1,	15,	11,	7,	-1,	-1,	-1,	-1,	-1,	-1,	-1,	1,	-1,	-1,	-1,	-1,	-1,	-1,	-1,	-1,	-1,	-1,	17,	8,	-1,	-1|
-1,	-1,	23,	-1,	-1,	-1,	-1,	34,	-1,	-1,	-1,	-1,	-1,	13,	36,	-1,	-1,	-1,	7,	-1,	-1,	-1,	-1,	20,	-1,	30,	24,	-1,	-1,	4,	-1,	-1,	-1,	10,	-1,	-1|
-1,	36,	-1,	5,	-1,	16,	-1,	-1,	-1,	-1,	28,	10,	-1,	11,	-1,	-1,	-1,	-1,	-1,	22,	-1,	27,	-1,	-1,	-1,	17,	30,	20,	6,	-1,	23,	-1,	-1,	-1,	3,	-1|
22,	-1,	19,	-1,	-1,	21,	-1,	-1,	-1,	1,	-1,	-1,	5,	-1,	-1,	15,	23,	-1,	-1,	-1,	-1,	-1,	-1,	14,	-1,	-1,	-1,	32,	-1,	-1,	-1,	-1,	-1,	-1,	-1,	16|
9,	-1,	10,	-1,	14,	-1,	-1,	-1,	-1,	22,	-1,	-1,	-1,	21,	12,	-1,	-1,	18,	1,	23,	20,	-1,	-1,	-1,	-1,	36,	-1,	-1,	4,	-1,	15,	-1,	19,	-1,	6,	-1|
1,	-1,	-1,	-1,	6,	-1,	-1,	-1,	11,	-1,	14,	23,	-1,	19,	-1,	16,	-1,	-1,	-1,	-1,	-1,	-1,	-1,	32,	-1,	27,	9,	-1,	-1,	-1,	-1,	-1,	26,	-1,	28,	20|
11,	23,	13,	17,	32,	-1,	-1,	-1,	31,	-1,	-1,	-1,	-1,	-1,	-1,	-1,	-1,	-1,	-1,	-1,	-1,	-1,	30,	-1,	-1,	-1,	1,	-1,	22,	-1,	-1,	2,	-1,	-1,	-1,	-1|
-1,	29,	30,	-1,	8,	20,	-1,	-1,	-1,	-1,	-1,	-1,	-1,	36,	32,	-1,	7,	14,	-1,	11,	33,	-1,	-1,	-1,	-1,	-1,	-1,	-1,	24,	-1,	35,	-1,	10,	-1,	-1,	-1|
-1,	-1,	-1,	-1,	-1,	-1,	-1,	6,	-1,	-1,	31,	-1,	-1,	-1,	-1,	30,	-1,	-1,	-1,	-1,	22,	10,	-1,	16,	-1,	-1,	-1,	-1,	-1,	-1,	-1,	-1,	18,	-1,	-1,	23|
-1,	-1,	-1,	14,	15,	-1,	-1,	-1,	-1,	-1,	-1,	-1,	27,	-1,	-1,	-1,	-1,	-1,	-1,	-1,	19,	-1,	34,	33,	-1,	-1,	-1,	-1,	-1,	-1,	32,	-1,	-1,	16,	20,	26|
-1,	6,	-1,	32,	-1,	8,	15,	-1,	-1,	11,	13,	-1,	14,	35,	22,	-1,	-1,	-1,	23,	-1,	-1,	-1,	26,	-1,	20,	-1,	27,	-1,	29,	30,	-1,	21,	-1,	-1,	-1,	-1|
-1,	22,	-1,	3,	-1,	-1,	-1,	-1,	21,	-1,	-1,	-1,	-1,	12,	15,	-1,	8,	-1,	-1,	-1,	1,	-1,	20,	27,	17,	-1,	-1,	34,	-1,	-1,	14,	-1,	7,	-1,	-1,	-1|
-1,	-1,	-1,	12,	24,	-1,	-1,	17,	23,	36,	27,	-1,	10,	4,	-1,	-1,	-1,	-1,	-1,	-1,	35,	18,	32,	2,	-1,	-1,	8,	19,	14,	3,	-1,	-1,	22,	30,	-1,	-1|
-1,	-1,	-1,	-1,	-1,	-1,	-1,	8,	16,	-1,	19,	-1,	-1,	26,	-1,	-1,	-1,	-1,	-1,	-1,	-1,	13,	14,	-1,	-1,	10,	-1,	-1,	-1,	25,	-1,	-1,	-1,	-1,	17,	-1|];
